p cnf 598 1414
c max 1 2 3 4 5 6 7 8 9 10 11 12 13 14 15 16 17 18 19 20 21 22 23 24 25 26 27 28 29 30 31 32 33 34 35 36 37 38 39 40 41 42 43 44 45 46 47 48 49 50 51 52 53 54 55 56 57 58 59 60 61 62 63 64 65 66 0
c ind 67 68 69 70 71 72 73 74 75 76 77 78 79 80 81 82 83 84 85 86 87 88 89 90 91 92 93 94 95 96 97 98 99 100 101 102 103 104 105 106 107 108 109 110 111 112 113 114 115 116 117 118 119 120 121 122 123 124 125 126 127 128 129 130 131 132 133 134 135 136 137 138 139 140 141 142 143 144 145 146 147 148 149 150 151 152 153 154 155 156 157 158 159 160 161 162 163 164 165 166 167 168 169 170 171 172 173 174 175 176 177 178 179 180 181 182 183 184 185 186 187 188 189 190 191 192 193 194 195 196 197 198 199 200 201 202 203 204 205 206 207 208 209 210 211 212 213 214 215 216 217 218 219 220 221 222 223 224 225 226 227 228 229 230 231 232 233 234 235 236 237 238 239 240 241 242 243 244 245 246 247 248 249 250 251 252 253 254 255 256 257 258 259 260 261 262 263 264 265 266 267 268 269 270 271 272 273 274 275 276 277 278 279 280 281 282 283 284 285 286 287 288 289 290 291 292 293 294 295 296 297 298 299 300 301 302 303 304 305 306 307 308 309 310 311 312 313 314 315 316 317 318 319 320 321 322 323 324 325 326 327 328 329 330 331 332 333 334 335 336 337 338 339 340 341 342 343 344 345 346 347 348 349 350 351 352 353 354 355 356 357 358 359 360 361 362 363 364 365 366 367 368 369 370 371 372 373 374 375 376 377 378 379 380 381 382 383 384 385 386 387 388 389 390 391 392 393 394 395 396 397 398 399 400 401 402 403 404 405 406 407 408 409 410 411 412 413 414 415 416 417 418 419 420 421 422 423 424 425 426 427 428 429 430 431 432 433 434 435 436 437 438 439 440 441 442 443 444 445 446 447 448 449 450 451 452 453 454 455 456 457 458 459 460 461 462 463 464 465 466 467 468 469 470 471 472 473 474 475 476 477 478 479 480 481 482 483 484 485 486 487 488 489 490 491 492 493 494 495 496 497 498 499 500 501 502 503 504 505 506 507 508 509 510 511 512 513 514 515 516 517 518 519 520 521 522 523 524 525 526 527 528 529 530 531 532 533 534 535 536 537 538 539 540 541 542 543 544 545 546 547 548 549 550 551 552 553 554 555 556 557 558 559 560 561 562 563 564 565 566 567 568 569 570 571 572 573 574 575 576 577 578 579 580 581 582 583 584 585 586 587 588 589 590 591 592 593 594 595 596 597 598 0
67 36 0
-67 -36 0
68 37 0
-68 -37 0
69 38 0
-69 -38 0
70 1 0
-70 -1 0
71 1 0
-71 -1 0
72 35 0
-72 -35 0
73 36 0
-73 -36 0
74 40 0
-74 -40 0
75 41 0
-75 -41 0
76 42 0
-76 -42 0
77 39 0
-77 -39 0
78 40 0
-78 -40 0
79 44 0
-79 -44 0
80 45 0
-80 -45 0
81 46 0
-81 -46 0
82 43 0
-82 -43 0
83 44 0
-83 -44 0
84 48 0
-84 -48 0
85 49 0
-85 -49 0
86 50 0
-86 -50 0
87 47 0
-87 -47 0
88 48 0
-88 -48 0
89 52 0
-89 -52 0
90 53 0
-90 -53 0
91 54 0
-91 -54 0
92 51 0
-92 -51 0
93 52 0
-93 -52 0
94 56 0
-94 -56 0
95 57 0
-95 -57 0
96 58 0
-96 -58 0
97 55 0
-97 -55 0
98 56 0
-98 -56 0
99 60 0
-99 -60 0
100 61 0
-100 -61 0
101 62 0
-101 -62 0
102 59 0
-102 -59 0
103 60 0
-103 -60 0
104 65 0
-104 -65 0
105 66 0
-105 -66 0
106 64 0
-106 -64 0
107 65 0
-107 -65 0
108 1 0
-108 -1 0
109 38 0
-109 -38 0
110 37 0
-110 -37 0
111 36 0
-111 -36 0
112 35 0
-112 -35 0
113 1 0
-113 -1 0
114 42 0
-114 -42 0
115 41 0
-115 -41 0
116 40 0
-116 -40 0
117 39 0
-117 -39 0
118 1 0
-118 -1 0
119 46 0
-119 -46 0
120 45 0
-120 -45 0
121 44 0
-121 -44 0
122 43 0
-122 -43 0
123 1 0
-123 -1 0
124 50 0
-124 -50 0
125 49 0
-125 -49 0
126 48 0
-126 -48 0
127 47 0
-127 -47 0
128 1 0
-128 -1 0
129 54 0
-129 -54 0
130 53 0
-130 -53 0
131 52 0
-131 -52 0
132 51 0
-132 -51 0
133 1 0
-133 -1 0
134 58 0
-134 -58 0
135 57 0
-135 -57 0
136 56 0
-136 -56 0
137 55 0
-137 -55 0
138 1 0
-138 -1 0
139 62 0
-139 -62 0
140 61 0
-140 -61 0
141 60 0
-141 -60 0
142 59 0
-142 -59 0
143 1 0
-143 -1 0
144 66 0
-144 -66 0
145 65 0
-145 -65 0
146 64 0
-146 -64 0
147 63 0
-147 -63 0
148 32 0
-148 -32 0
149 31 0
-149 -31 0
150 28 0
-150 -28 0
151 27 0
-151 -27 0
152 24 0
-152 -24 0
153 23 0
-153 -23 0
154 20 0
-154 -20 0
155 19 0
-155 -19 0
156 16 0
-156 -16 0
157 15 0
-157 -15 0
158 12 0
-158 -12 0
159 11 0
-159 -11 0
160 8 0
-160 -8 0
161 7 0
-161 -7 0
162 4 0
-162 -4 0
163 3 0
-163 -3 0
-164 70 0
-164 38 0
164 -70 -38 0
-165 69 0
-165 1 0
165 -69 -1 0
-166 34 0
-166 1 0
166 -34 -1 0
167 -165 0
167 -164 0
-167 165 164 0
168 37 0
168 38 0
-168 -37 -38 0
169 1 0
169 38 0
-169 -1 -38 0
170 41 0
170 42 0
-170 -41 -42 0
171 45 0
171 46 0
-171 -45 -46 0
172 49 0
172 50 0
-172 -49 -50 0
173 53 0
173 54 0
-173 -53 -54 0
174 57 0
174 58 0
-174 -57 -58 0
175 61 0
175 62 0
-175 -61 -62 0
176 1 0
176 109 0
-176 -1 -109 0
177 1 0
177 114 0
-177 -1 -114 0
178 1 0
178 119 0
-178 -1 -119 0
179 1 0
179 124 0
-179 -1 -124 0
180 1 0
180 129 0
-180 -1 -129 0
181 1 0
181 134 0
-181 -1 -134 0
182 1 0
182 139 0
-182 -1 -139 0
183 1 0
183 144 0
-183 -1 -144 0
514 -73 0
514 -72 0
-514 73 72 0
513 -514 0
513 -168 0
-513 514 168 0
184 513 0
-184 -513 0
-185 -71 0
-185 -168 0
185 71 168 0
516 -78 0
516 -77 0
-516 78 77 0
515 -516 0
515 -170 0
-515 516 170 0
186 515 0
-186 -515 0
518 -83 0
518 -82 0
-518 83 82 0
517 -518 0
517 -171 0
-517 518 171 0
187 517 0
-187 -517 0
520 -88 0
520 -87 0
-520 88 87 0
519 -520 0
519 -172 0
-519 520 172 0
188 519 0
-188 -519 0
522 -93 0
522 -92 0
-522 93 92 0
521 -522 0
521 -173 0
-521 522 173 0
189 521 0
-189 -521 0
524 -98 0
524 -97 0
-524 98 97 0
523 -524 0
523 -174 0
-523 524 174 0
190 523 0
-190 -523 0
526 -103 0
526 -102 0
-526 103 102 0
525 -526 0
525 -175 0
-525 526 175 0
191 525 0
-191 -525 0
-192 -109 0
-192 -108 0
192 109 108 0
-193 -176 0
-193 -110 0
193 176 110 0
528 -38 0
528 -36 0
-528 38 36 0
529 -528 0
529 -37 0
-529 528 37 0
527 -529 0
527 -35 0
-527 529 35 0
194 527 0
-194 -527 0
-195 -114 0
-195 -113 0
195 114 113 0
-196 -177 0
-196 -115 0
196 177 115 0
531 -42 0
531 -40 0
-531 42 40 0
532 -531 0
532 -41 0
-532 531 41 0
530 -532 0
530 -39 0
-530 532 39 0
197 530 0
-197 -530 0
-198 -119 0
-198 -118 0
198 119 118 0
-199 -178 0
-199 -120 0
199 178 120 0
534 -46 0
534 -44 0
-534 46 44 0
535 -534 0
535 -45 0
-535 534 45 0
533 -535 0
533 -43 0
-533 535 43 0
200 533 0
-200 -533 0
-201 -124 0
-201 -123 0
201 124 123 0
-202 -179 0
-202 -125 0
202 179 125 0
537 -50 0
537 -48 0
-537 50 48 0
538 -537 0
538 -49 0
-538 537 49 0
536 -538 0
536 -47 0
-536 538 47 0
203 536 0
-203 -536 0
-204 -129 0
-204 -128 0
204 129 128 0
-205 -180 0
-205 -130 0
205 180 130 0
540 -54 0
540 -52 0
-540 54 52 0
541 -540 0
541 -53 0
-541 540 53 0
539 -541 0
539 -51 0
-539 541 51 0
206 539 0
-206 -539 0
-207 -134 0
-207 -133 0
207 134 133 0
-208 -181 0
-208 -135 0
208 181 135 0
543 -58 0
543 -56 0
-543 58 56 0
544 -543 0
544 -57 0
-544 543 57 0
542 -544 0
542 -55 0
-542 544 55 0
209 542 0
-209 -542 0
-210 -139 0
-210 -138 0
210 139 138 0
-211 -182 0
-211 -140 0
211 182 140 0
546 -62 0
546 -60 0
-546 62 60 0
547 -546 0
547 -61 0
-547 546 61 0
545 -547 0
545 -59 0
-545 547 59 0
212 545 0
-212 -545 0
-213 -144 0
-213 -143 0
213 144 143 0
-214 -183 0
-214 -145 0
214 183 145 0
215 178 0
-215 -178 0
-216 67 0
-216 185 0
216 -67 -185 0
-217 68 0
-217 169 0
217 -68 -169 0
-218 1 0
-218 184 0
218 -1 -184 0
-219 218 0
-219 186 0
219 -218 -186 0
-220 219 0
-220 187 0
220 -219 -187 0
-221 220 0
-221 188 0
221 -220 -188 0
-222 221 0
-222 189 0
222 -221 -189 0
-223 222 0
-223 190 0
223 -222 -190 0
-224 223 0
-224 191 0
224 -223 -191 0
-225 197 0
-225 194 0
225 -197 -194 0
-226 200 0
-226 225 0
226 -200 -225 0
-227 203 0
-227 226 0
227 -203 -226 0
-228 206 0
-228 227 0
228 -206 -227 0
-229 209 0
-229 228 0
229 -209 -228 0
-230 212 0
-230 229 0
230 -212 -229 0
-231 195 0
-231 194 0
231 -195 -194 0
-232 196 0
-232 194 0
232 -196 -194 0
-233 198 0
-233 225 0
233 -198 -225 0
-234 199 0
-234 225 0
234 -199 -225 0
-235 201 0
-235 226 0
235 -201 -226 0
-236 202 0
-236 226 0
236 -202 -226 0
-237 204 0
-237 227 0
237 -204 -227 0
-238 205 0
-238 227 0
238 -205 -227 0
-239 207 0
-239 228 0
239 -207 -228 0
-240 208 0
-240 228 0
240 -208 -228 0
-241 210 0
-241 229 0
241 -210 -229 0
-242 211 0
-242 229 0
242 -211 -229 0
-243 213 0
-243 230 0
243 -213 -230 0
-244 214 0
-244 230 0
244 -214 -230 0
-245 33 0
-245 192 0
245 -33 -192 0
-246 29 0
-246 231 0
246 -29 -231 0
-247 25 0
-247 233 0
247 -25 -233 0
-248 21 0
-248 235 0
248 -21 -235 0
-249 17 0
-249 237 0
249 -17 -237 0
-250 13 0
-250 239 0
250 -13 -239 0
-251 9 0
-251 241 0
251 -9 -241 0
-252 5 0
-252 243 0
252 -5 -243 0
548 -71 0
548 -73 0
-548 71 73 0
253 -548 0
253 -168 0
-253 548 168 0
254 35 0
254 253 0
-254 -35 -253 0
255 179 0
-255 -179 0
256 218 0
256 42 0
-256 -218 -42 0
257 185 0
-257 -185 0
258 219 0
258 46 0
-258 -219 -46 0
259 220 0
259 50 0
-259 -220 -50 0
260 223 0
-260 -223 0
261 221 0
261 54 0
-261 -221 -54 0
262 180 0
-262 -180 0
263 222 0
263 58 0
-263 -222 -58 0
264 223 0
-264 -223 0
265 223 0
265 62 0
-265 -223 -62 0
266 224 0
266 66 0
-266 -224 -66 0
267 220 0
-267 -220 0
268 220 0
-268 -220 0
269 120 0
269 215 0
-269 -120 -215 0
270 125 0
270 255 0
-270 -125 -255 0
271 266 0
-271 -266 0
272 130 0
272 262 0
-272 -130 -262 0
273 181 0
-273 -181 0
274 135 0
274 273 0
-274 -135 -273 0
275 256 0
-275 -256 0
276 224 0
-276 -224 0
277 182 0
-277 -182 0
278 266 0
-278 -266 0
-279 -268 0
-279 -172 0
279 268 172 0
280 258 0
-280 -258 0
281 261 0
-281 -261 0
282 169 0
-282 -169 0
-283 -264 0
-283 -175 0
283 264 175 0
284 183 0
-284 -183 0
285 193 0
-285 -193 0
286 185 0
-286 -185 0
287 221 0
-287 -221 0
288 232 0
-288 -232 0
289 176 0
-289 -176 0
-290 -269 0
-290 -121 0
290 269 121 0
550 -122 0
550 -269 0
-550 122 269 0
549 -550 0
549 -44 0
-549 550 44 0
291 549 0
-291 -549 0
292 221 0
-292 -221 0
293 234 0
-293 -234 0
-294 -270 0
-294 -126 0
294 270 126 0
552 -127 0
552 -270 0
-552 127 270 0
551 -552 0
551 -48 0
-551 552 48 0
295 551 0
-295 -551 0
296 219 0
-296 -219 0
297 219 0
-297 -219 0
298 236 0
-298 -236 0
-299 -272 0
-299 -131 0
299 272 131 0
554 -132 0
554 -272 0
-554 132 272 0
553 -554 0
553 -52 0
-553 554 52 0
300 553 0
-300 -553 0
-301 -274 0
-301 -136 0
301 274 136 0
556 -137 0
556 -274 0
-556 137 274 0
555 -556 0
555 -56 0
-555 556 56 0
302 555 0
-302 -555 0
303 238 0
-303 -238 0
304 177 0
-304 -177 0
305 218 0
-305 -218 0
306 240 0
-306 -240 0
-307 -166 0
-307 -245 0
307 166 245 0
-308 84 0
-308 279 0
308 -84 -279 0
-309 85 0
-309 259 0
309 -85 -259 0
-310 267 0
-310 50 0
310 -267 -50 0
-311 86 0
-311 220 0
311 -86 -220 0
-312 90 0
-312 261 0
312 -90 -261 0
-313 281 0
-313 53 0
313 -281 -53 0
557 -73 0
557 -35 0
-557 73 35 0
314 -557 0
314 -286 0
-314 557 286 0
315 283 0
-315 -283 0
-316 287 0
-316 54 0
316 -287 -54 0
558 -297 0
558 -83 0
-558 297 83 0
317 -558 0
317 -171 0
-317 558 171 0
318 -311 0
318 -310 0
-318 311 310 0
559 -268 0
559 -88 0
-559 268 88 0
319 -559 0
319 -172 0
-319 559 172 0
560 -292 0
560 -93 0
-560 292 93 0
320 -560 0
320 -173 0
-320 560 173 0
561 -264 0
561 -103 0
-561 264 103 0
321 -561 0
321 -175 0
-321 561 175 0
562 -106 0
562 -107 0
-562 106 107 0
322 -562 0
322 -266 0
-322 562 266 0
323 -148 0
323 -285 0
-323 148 285 0
324 -150 0
324 -288 0
-324 150 288 0
325 -152 0
325 -293 0
-325 152 293 0
326 -154 0
326 -298 0
-326 154 298 0
327 -156 0
327 -303 0
-327 156 303 0
328 -158 0
328 -306 0
-328 158 306 0
329 254 0
329 314 0
-329 -254 -314 0
-330 91 0
-330 221 0
330 -91 -221 0
331 259 0
-331 -259 0
332 265 0
-332 -265 0
333 43 0
333 317 0
-333 -43 -317 0
-334 95 0
-334 263 0
334 -95 -263 0
335 47 0
335 319 0
-335 -47 -319 0
336 51 0
336 320 0
-336 -51 -320 0
-337 96 0
-337 222 0
337 -96 -222 0
-338 99 0
-338 283 0
338 -99 -283 0
-339 315 0
-339 60 0
339 -315 -60 0
-340 100 0
-340 265 0
340 -100 -265 0
341 59 0
341 321 0
-341 -59 -321 0
-342 332 0
-342 61 0
342 -332 -61 0
-343 260 0
-343 62 0
343 -260 -62 0
344 63 0
344 322 0
-344 -63 -322 0
-345 101 0
-345 223 0
345 -101 -223 0
346 65 0
346 278 0
-346 -65 -278 0
347 110 0
347 289 0
-347 -110 -289 0
-348 104 0
-348 266 0
348 -104 -266 0
349 115 0
349 304 0
-349 -115 -304 0
-350 271 0
-350 65 0
350 -271 -65 0
-351 276 0
-351 66 0
351 -276 -66 0
352 283 0
-352 -283 0
-353 105 0
-353 224 0
353 -105 -224 0
-354 65 0
-354 278 0
354 -65 -278 0
355 222 0
-355 -222 0
356 140 0
356 277 0
-356 -140 -277 0
357 244 0
-357 -244 0
358 145 0
358 284 0
-358 -145 -284 0
359 279 0
-359 -279 0
360 263 0
-360 -263 0
-361 -297 0
-361 -171 0
361 297 171 0
362 222 0
-362 -222 0
363 218 0
-363 -218 0
-364 -313 0
-364 -312 0
364 313 312 0
-365 257 0
-365 36 0
365 -257 -36 0
-366 -292 0
-366 -173 0
366 292 173 0
367 242 0
-367 -242 0
-368 -362 0
-368 -174 0
368 362 174 0
-369 -342 0
-369 -340 0
369 342 340 0
-370 282 0
-370 37 0
370 -282 -37 0
371 279 0
-371 -279 0
-372 -350 0
-372 -348 0
372 350 348 0
-373 -354 0
-373 -106 0
373 354 106 0
-374 -347 0
-374 -111 0
374 347 111 0
564 -112 0
564 -347 0
-564 112 347 0
563 -564 0
563 -36 0
-563 564 36 0
375 563 0
-375 -563 0
376 374 0
-376 -374 0
-377 -349 0
-377 -116 0
377 349 116 0
566 -117 0
566 -349 0
-566 117 349 0
565 -566 0
565 -40 0
-565 566 40 0
378 565 0
-378 -565 0
-379 378 0
-379 194 0
379 -378 -194 0
-380 75 0
-380 256 0
380 -75 -256 0
-381 275 0
-381 41 0
381 -275 -41 0
-382 290 0
-382 225 0
382 -290 -225 0
-383 291 0
-383 225 0
383 -291 -225 0
-384 305 0
-384 42 0
384 -305 -42 0
385 382 0
-385 -382 0
-386 76 0
-386 218 0
386 -76 -218 0
-387 294 0
-387 226 0
387 -294 -226 0
-388 295 0
-388 226 0
388 -295 -226 0
-389 79 0
-389 361 0
389 -79 -361 0
-390 299 0
-390 227 0
390 -299 -227 0
-391 300 0
-391 227 0
391 -300 -227 0
392 387 0
-392 -387 0
393 366 0
-393 -366 0
394 368 0
-394 -368 0
-395 80 0
-395 258 0
395 -80 -258 0
-396 280 0
-396 45 0
396 -280 -45 0
-397 301 0
-397 228 0
397 -301 -228 0
398 390 0
-398 -390 0
-399 302 0
-399 228 0
399 -302 -228 0
-400 -356 0
-400 -141 0
400 356 141 0
568 -142 0
568 -356 0
-568 142 356 0
567 -568 0
567 -60 0
-567 568 60 0
401 567 0
-401 -567 0
-402 296 0
-402 46 0
402 -296 -46 0
-403 81 0
-403 219 0
403 -81 -219 0
404 397 0
-404 -397 0
-405 -358 0
-405 -146 0
405 358 146 0
570 -147 0
570 -358 0
-570 147 358 0
569 -570 0
569 -64 0
-569 570 64 0
406 569 0
-406 -569 0
-407 400 0
-407 229 0
407 -400 -229 0
408 -403 0
408 -402 0
-408 403 402 0
-409 371 0
-409 48 0
409 -371 -48 0
571 -88 0
571 -47 0
-571 88 47 0
410 -571 0
410 -359 0
-410 571 359 0
411 -409 0
411 -308 0
-411 409 308 0
-412 26 0
-412 379 0
412 -26 -379 0
-413 405 0
-413 230 0
413 -405 -230 0
572 -93 0
572 -51 0
-572 93 51 0
414 -572 0
414 -393 0
-414 572 393 0
415 -330 0
415 -316 0
-415 330 316 0
-416 22 0
-416 383 0
416 -22 -383 0
573 -362 0
573 -98 0
-573 362 98 0
417 -573 0
417 -174 0
-417 573 174 0
574 -103 0
574 -59 0
-574 103 59 0
418 -574 0
418 -352 0
-418 574 352 0
419 407 0
-419 -407 0
420 361 0
-420 -361 0
421 -339 0
421 -338 0
-421 339 338 0
422 361 0
-422 -361 0
423 -345 0
423 -343 0
-423 345 343 0
-424 89 0
-424 366 0
424 -89 -366 0
575 -106 0
575 -63 0
-575 106 63 0
425 -575 0
425 -346 0
-425 575 346 0
426 413 0
-426 -413 0
-427 -370 0
-427 -217 0
427 370 217 0
428 -64 0
428 -346 0
-428 64 346 0
429 366 0
-429 -366 0
-430 -381 0
-430 -380 0
430 381 380 0
431 -353 0
431 -351 0
-431 353 351 0
-432 -363 0
-432 -170 0
432 363 170 0
-433 -396 0
-433 -395 0
433 396 395 0
434 373 0
-434 -373 0
-435 18 0
-435 388 0
435 -18 -388 0
436 -149 0
436 -376 0
-436 149 376 0
-437 429 0
-437 52 0
437 -429 -52 0
-438 14 0
-438 391 0
438 -14 -391 0
439 -153 0
439 -385 0
-439 153 385 0
-440 406 0
-440 230 0
440 -406 -230 0
441 -155 0
441 -392 0
-441 155 392 0
-442 10 0
-442 399 0
442 -10 -399 0
443 -157 0
443 -398 0
-443 157 398 0
-444 401 0
-444 229 0
444 -401 -229 0
445 -159 0
445 -404 0
-445 159 404 0
-446 6 0
-446 444 0
446 -6 -444 0
447 432 0
-447 -432 0
-448 74 0
-448 432 0
448 -74 -432 0
449 -161 0
449 -419 0
-449 161 419 0
450 -160 0
450 -367 0
-450 160 367 0
451 -163 0
451 -426 0
-451 163 426 0
-452 447 0
-452 40 0
452 -447 -40 0
-453 377 0
-453 194 0
453 -377 -194 0
454 -162 0
454 -357 0
-454 162 357 0
455 453 0
-455 -453 0
-456 2 0
-456 440 0
456 -2 -440 0
457 368 0
-457 -368 0
-458 94 0
-458 368 0
458 -94 -368 0
459 -365 0
459 -216 0
-459 365 216 0
-460 422 0
-460 44 0
460 -422 -44 0
-461 331 0
-461 49 0
461 -331 -49 0
-462 394 0
-462 56 0
462 -394 -56 0
-463 30 0
-463 375 0
463 -30 -375 0
-464 360 0
-464 57 0
464 -360 -57 0
465 335 0
465 410 0
-465 -335 -410 0
466 -452 0
466 -448 0
-466 452 448 0
467 432 0
-467 -432 0
-468 355 0
-468 58 0
468 -355 -58 0
469 336 0
469 414 0
-469 -336 -414 0
470 -386 0
470 -384 0
-470 386 384 0
576 -363 0
576 -78 0
-576 363 78 0
471 -576 0
471 -170 0
-471 576 170 0
577 -83 0
577 -43 0
-577 83 43 0
472 -577 0
472 -420 0
-472 577 420 0
473 55 0
473 417 0
-473 -55 -417 0
-474 -463 0
-474 -246 0
474 463 246 0
-475 -412 0
-475 -247 0
475 412 247 0
-476 -416 0
-476 -248 0
476 416 248 0
-477 -435 0
-477 -249 0
477 435 249 0
-478 -438 0
-478 -250 0
478 438 250 0
-479 -442 0
-479 -251 0
479 442 251 0
-480 -446 0
-480 -252 0
480 446 252 0
-579 476 0
-579 326 0
579 -476 -326 0
-578 579 0
-578 441 0
578 -579 -441 0
481 578 0
-481 -578 0
-581 477 0
-581 327 0
581 -477 -327 0
-580 581 0
-580 443 0
580 -581 -443 0
482 580 0
-482 -580 0
-483 -464 0
-483 -334 0
483 464 334 0
-583 478 0
-583 328 0
583 -478 -328 0
-582 583 0
-582 445 0
582 -583 -445 0
484 582 0
-484 -582 0
-585 479 0
-585 450 0
585 -479 -450 0
-584 585 0
-584 449 0
584 -585 -449 0
485 584 0
-485 -584 0
486 39 0
486 471 0
-486 -39 -471 0
-587 480 0
-587 454 0
587 -480 -454 0
-586 587 0
-586 451 0
586 -587 -451 0
487 586 0
-487 -586 0
488 -437 0
488 -424 0
-488 437 424 0
489 333 0
489 472 0
-489 -333 -472 0
490 434 0
490 428 0
-490 -434 -428 0
588 -78 0
588 -39 0
-588 78 39 0
491 -588 0
491 -467 0
-491 588 467 0
492 341 0
492 418 0
-492 -341 -418 0
589 -98 0
589 -55 0
-589 98 55 0
493 -589 0
493 -457 0
-493 589 457 0
494 -462 0
494 -458 0
-494 462 458 0
495 -337 0
495 -468 0
-495 337 468 0
496 -460 0
496 -389 0
-496 460 389 0
497 344 0
497 425 0
-497 -344 -425 0
-591 307 0
-591 323 0
591 -307 -323 0
-590 591 0
-590 436 0
590 -591 -436 0
498 590 0
-498 -590 0
-499 -461 0
-499 -309 0
499 461 309 0
500 473 0
500 493 0
-500 -473 -493 0
-593 475 0
-593 325 0
593 -475 -325 0
-592 593 0
-592 439 0
592 -593 -439 0
501 592 0
-501 -592 0
502 -151 0
502 -455 0
-502 151 455 0
-595 474 0
-595 324 0
595 -474 -324 0
-594 595 0
-594 502 0
594 -595 -502 0
503 594 0
-503 -594 0
504 486 0
504 491 0
-504 -486 -491 0
505 -503 0
505 -498 0
-505 503 498 0
506 -501 0
506 -505 0
-506 501 505 0
507 -481 0
507 -506 0
-507 481 506 0
508 -482 0
508 -507 0
-508 482 507 0
509 -484 0
509 -508 0
-509 484 508 0
510 -485 0
510 -509 0
-510 485 509 0
511 -487 0
511 -510 0
-511 487 510 0
512 -456 0
512 -511 0
-512 456 511 0
-596 372 364 0
-596 -372 -364 0
596 -372 364 0
596 372 -364 0
596 0
-597 372 364 0
-597 -372 -364 0
597 -372 364 0
597 372 -364 0
597 0
-598 372 364 0
-598 -372 -364 0
598 -372 364 0
598 372 -364 0
598 0
